
(set-logic HORN)
(declare-fun zero_58 () Int)
(declare-fun succ_57 (Int) Int)
(declare-datatypes ((Bool_175 0)) (((false_175) (true_175))))
(declare-fun diseqBool_74 (Bool_175 Bool_175) Bool)
(declare-fun isfalse_74 (Bool_175) Bool)
(declare-fun istrue_74 (Bool_175) Bool)
(assert (isfalse_74 false_175))
(assert (istrue_74 true_175))
(assert (diseqBool_74 false_175 true_175))
(assert (diseqBool_74 true_175 false_175))
(declare-fun and_175 (Bool_175 Bool_175 Bool_175) Bool)
(declare-fun or_177 (Bool_175 Bool_175 Bool_175) Bool)
(declare-fun hence_175 (Bool_175 Bool_175 Bool_175) Bool)
(declare-fun not_176 (Bool_175 Bool_175) Bool)
(assert (and_175 false_175 false_175 false_175))
(assert (and_175 false_175 true_175 false_175))
(assert (and_175 false_175 false_175 true_175))
(assert (and_175 true_175 true_175 true_175))
(assert (or_177 false_175 false_175 false_175))
(assert (or_177 true_175 true_175 false_175))
(assert (or_177 true_175 false_175 true_175))
(assert (or_177 true_175 true_175 true_175))
(assert (hence_175 true_175 false_175 false_175))
(assert (hence_175 false_175 true_175 false_175))
(assert (hence_175 true_175 false_175 true_175))
(assert (hence_175 true_175 true_175 true_175))
(assert (not_176 true_175 false_175))
(assert (not_176 false_175 true_175))
(declare-fun diseqInt (Int Int) Bool)
(declare-fun p_160 (Int Int) Bool)
(declare-fun iszero_57 (Int) Bool)
(declare-fun issucc_57 (Int) Bool)
(assert (forall ((x_26521 Int))
	(p_160 x_26521 (succ_57 x_26521))))
(assert (iszero_57 zero_58))
(assert (forall ((x_26523 Int))
	(issucc_57 (succ_57 x_26523))))
(assert (forall ((x_26524 Int))
	(diseqInt zero_58 (succ_57 x_26524))))
(assert (forall ((x_26525 Int))
	(diseqInt (succ_57 x_26525) zero_58)))
(assert (forall ((x_26526 Int) (x_26527 Int))
	(=> (diseqInt x_26526 x_26527) (diseqInt (succ_57 x_26526) (succ_57 x_26527)))))
(declare-datatypes ((list_124 0)) (((nil_138) (cons_124 (head_248 Int) (tail_248 list_124)))))
(declare-fun diseqlist_124 (list_124 list_124) Bool)
(declare-fun head_249 (Int list_124) Bool)
(declare-fun tail_249 (list_124 list_124) Bool)
(declare-fun isnil_138 (list_124) Bool)
(declare-fun iscons_124 (list_124) Bool)
(assert (forall ((x_26529 Int) (x_26530 list_124))
	(head_249 x_26529 (cons_124 x_26529 x_26530))))
(assert (forall ((x_26529 Int) (x_26530 list_124))
	(tail_249 x_26530 (cons_124 x_26529 x_26530))))
(assert (isnil_138 nil_138))
(assert (forall ((x_26532 Int) (x_26533 list_124))
	(iscons_124 (cons_124 x_26532 x_26533))))
(assert (forall ((x_26534 Int) (x_26535 list_124))
	(diseqlist_124 nil_138 (cons_124 x_26534 x_26535))))
(assert (forall ((x_26536 Int) (x_26537 list_124))
	(diseqlist_124 (cons_124 x_26536 x_26537) nil_138)))
(assert (forall ((x_26538 Int) (x_26539 list_124) (x_26540 Int) (x_26541 list_124))
	(=> (diseqInt x_26538 x_26540) (diseqlist_124 (cons_124 x_26538 x_26539) (cons_124 x_26540 x_26541)))))
(assert (forall ((x_26538 Int) (x_26539 list_124) (x_26540 Int) (x_26541 list_124))
	(=> (diseqlist_124 x_26539 x_26541) (diseqlist_124 (cons_124 x_26538 x_26539) (cons_124 x_26540 x_26541)))))
(declare-datatypes ((pair_46 0)) (((pair_47 (projpair_92 Bool_175) (projpair_93 list_124)))))
(declare-fun diseqpair_23 (pair_46 pair_46) Bool)
(declare-fun projpair_94 (Bool_175 pair_46) Bool)
(declare-fun projpair_95 (list_124 pair_46) Bool)
(declare-fun ispair_23 (pair_46) Bool)
(assert (forall ((x_26542 Bool_175) (x_26543 list_124))
	(projpair_94 x_26542 (pair_47 x_26542 x_26543))))
(assert (forall ((x_26542 Bool_175) (x_26543 list_124))
	(projpair_95 x_26543 (pair_47 x_26542 x_26543))))
(assert (forall ((x_26545 Bool_175) (x_26546 list_124))
	(ispair_23 (pair_47 x_26545 x_26546))))
(assert (forall ((x_26547 Bool_175) (x_26548 list_124) (x_26549 Bool_175) (x_26550 list_124))
	(=> (diseqBool_74 x_26547 x_26549) (diseqpair_23 (pair_47 x_26547 x_26548) (pair_47 x_26549 x_26550)))))
(assert (forall ((x_26547 Bool_175) (x_26548 list_124) (x_26549 Bool_175) (x_26550 list_124))
	(=> (diseqlist_124 x_26548 x_26550) (diseqpair_23 (pair_47 x_26547 x_26548) (pair_47 x_26549 x_26550)))))
(declare-fun leq_20 (Bool_175 Int Int) Bool)
(assert (forall ((x_26488 Bool_175) (x_26483 Int) (z_1007 Int))
	(=> (leq_20 x_26488 z_1007 x_26483) (leq_20 x_26488 (succ_57 z_1007) (succ_57 x_26483)))))
(assert (forall ((z_1007 Int))
	(leq_20 false_175 (succ_57 z_1007) zero_58)))
(assert (forall ((y_1048 Int))
	(leq_20 true_175 zero_58 y_1048)))
(declare-fun insert_15 (list_124 Int list_124) Bool)
(assert (forall ((z_1008 Int) (xs_331 list_124) (x_26484 Int))
	(=> (leq_20 true_175 x_26484 z_1008) (insert_15 (cons_124 x_26484 (cons_124 z_1008 xs_331)) x_26484 (cons_124 z_1008 xs_331)))))
(assert (forall ((x_26496 list_124) (z_1008 Int) (xs_331 list_124) (x_26484 Int))
	(=> (and (insert_15 x_26496 x_26484 xs_331) (leq_20 false_175 x_26484 z_1008)) (insert_15 (cons_124 z_1008 x_26496) x_26484 (cons_124 z_1008 xs_331)))))
(assert (forall ((x_26484 Int))
	(insert_15 (cons_124 x_26484 nil_138) x_26484 nil_138)))
(declare-fun isort_15 (list_124 list_124) Bool)
(assert (forall ((x_26498 list_124) (x_26499 list_124) (y_1050 Int) (xs_332 list_124))
	(=> (and (isort_15 x_26499 xs_332) (insert_15 x_26498 y_1050 x_26499)) (isort_15 x_26498 (cons_124 y_1050 xs_332)))))
(assert (isort_15 nil_138 nil_138))
(declare-fun bubble_2 (pair_46 list_124) Bool)
(assert (forall ((b_19 Bool_175) (ys_102 list_124) (y_1052 Int) (xs_333 list_124) (y_1051 Int))
	(=> (and (bubble_2 (pair_47 b_19 ys_102) (cons_124 y_1052 xs_333)) (leq_20 true_175 y_1051 y_1052)) (bubble_2 (pair_47 b_19 (cons_124 y_1051 ys_102)) (cons_124 y_1051 (cons_124 y_1052 xs_333))))))
(assert (forall ((b_20 Bool_175) (ys_103 list_124) (y_1052 Int) (xs_333 list_124) (y_1051 Int))
	(=> (and (bubble_2 (pair_47 b_20 ys_103) (cons_124 y_1051 xs_333)) (leq_20 false_175 y_1051 y_1052)) (bubble_2 (pair_47 true_175 (cons_124 y_1052 ys_103)) (cons_124 y_1051 (cons_124 y_1052 xs_333))))))
(assert (forall ((y_1051 Int))
	(bubble_2 (pair_47 false_175 (cons_124 y_1051 nil_138)) (cons_124 y_1051 nil_138))))
(assert (bubble_2 (pair_47 false_175 nil_138) nil_138))
(declare-fun bubsort_2 (list_124 list_124) Bool)
(assert (forall ((x_26511 list_124) (ys_104 list_124) (x_26487 list_124))
	(=> (and (bubsort_2 x_26511 ys_104) (bubble_2 (pair_47 true_175 ys_104) x_26487)) (bubsort_2 x_26511 x_26487))))
(assert (forall ((ys_104 list_124) (x_26487 list_124))
	(=> (bubble_2 (pair_47 false_175 ys_104) x_26487) (bubsort_2 x_26487 x_26487))))
(assert (forall ((x_26515 list_124) (x_26516 list_124) (xs_334 list_124))
	(=> (and true (diseqlist_124 x_26515 x_26516) (bubsort_2 x_26515 xs_334) (isort_15 x_26516 xs_334)) false)))
(check-sat)
